Normalized Data/p01_8_normalized_split0.vrp
NAME:p01_8_NORMALIZED_split
BEST_KNOWN: 0
COMMENT: 0
DIMENSION: 223
CAPACITY: 100
EDGE_WEIGHT_FORMAT: FUNCTION
EDGE_WEIGHT_TYPE: EXACT_2D
NODE_COORD_SECTION
1 0.00000 0.00000
2 0 -9
3 0 -9
4 0 -9
5 0 -9
6 0 -9
7 0 -9
8 -47 7
9 -47 7
10 -47 7
11 -47 7
12 -47 7
13 -21 -12
14 -21 -12
15 -21 -12
16 -21 -12
17 5 14
18 5 14
19 5 14
20 5 14
21 5 14
22 5 14
23 27 42
24 27 42
25 27 42
26 19 -27
27 19 -27
28 19 -27
29 19 -27
30 36 -26
31 36 -26
32 36 -26
33 4 10
34 4 10
35 -48 -40
36 -48 -40
37 -48 -40
38 -48 -40
39 -48 -40
40 -40 39
41 -40 39
42 -40 39
43 -40 39
44 42 -41
45 42 -41
46 42 -41
47 42 -41
48 19 4
49 19 4
50 19 4
51 -43 1
52 -43 1
53 -43 1
54 -26 -6
55 -26 -6
56 1 27
57 1 27
58 1 27
59 20 6
60 20 6
61 20 6
62 20 6
63 0 42
64 0 42
65 0 42
66 0 42
67 0 42
68 -14 12
69 -14 12
70 -14 12
71 -14 12
72 -14 12
73 33 36
74 33 36
75 33 36
76 33 36
77 33 36
78 33 36
79 -11 -28
80 -11 -28
81 -11 -28
82 -11 -28
83 -11 -28
84 -11 -28
85 -11 -28
86 -50 -43
87 -50 -43
88 -50 -43
89 -50 -43
90 -50 -43
91 -35 -17
92 -35 -17
93 -35 -17
94 -35 -17
95 19 -24
96 19 -24
97 19 -24
98 19 -24
99 19 -24
100 19 -24
101 19 -24
102 -48 28
103 -48 28
104 -48 28
105 14 -36
106 14 -36
107 14 -36
108 14 -36
109 14 -36
110 14 -36
111 14 -36
112 -36 -32
113 -36 -32
114 -36 -32
115 -36 -32
116 7 36
117 7 36
118 7 36
119 7 36
120 7 36
121 7 36
122 7 36
123 -29 7
124 -29 7
125 -29 7
126 -29 7
127 -29 7
128 22 31
129 22 31
130 22 31
131 22 31
132 47 -14
133 47 -14
134 47 -14
135 47 -14
136 -20 24
137 -20 24
138 -20 24
139 3 -41
140 3 -41
141 3 -41
142 3 -41
143 3 -41
144 2 -5
145 2 -5
146 2 -5
147 -39 30
148 -39 30
149 -39 30
150 -39 30
151 -39 30
152 -39 30
153 -39 30
154 10 -26
155 10 -26
156 10 -26
157 -16 -33
158 -16 -33
159 -16 -33
160 -16 -33
161 -16 -33
162 -16 -33
163 -16 -33
164 33 33
165 33 33
166 33 33
167 33 33
168 33 33
169 33 33
170 21 41
171 21 41
172 21 41
173 -24 24
174 -24 24
175 -24 24
176 -24 24
177 -24 24
178 -24 24
179 -47 -32
180 -47 -32
181 -47 -32
182 -47 -32
183 -47 -32
184 -12 12
185 -12 12
186 43 -25
187 43 -25
188 43 -25
189 43 -25
190 -39 -13
191 -39 -13
192 -39 -13
193 -39 -13
194 -39 -13
195 -14 -37
196 -14 -37
197 -14 -37
198 -14 -37
199 -14 -37
200 -45 29
201 -45 29
202 -45 29
203 -45 29
204 -26 45
205 -26 45
206 -26 45
207 -26 45
208 11 2
209 11 2
210 11 2
211 11 2
212 -47 4
213 -47 4
214 -47 4
215 -15 -10
216 -15 -10
217 -15 -10
218 -15 -10
219 -15 -10
220 -15 -10
221 34 14
222 34 14
223 34 14
DEMAND_SECTION
1 0
2 20
3 10
4 5
5 1
6 1
7 1
8 20
9 10
10 5
11 1
12 1
13 10
14 5
15 1
16 1
17 20
18 10
19 5
20 1
21 1
22 1
23 20
24 10
25 1
26 20
27 10
28 5
29 1
30 20
31 10
32 1
33 10
34 5
35 20
36 20
37 5
38 1
39 1
40 20
41 1
42 1
43 1
44 10
45 5
46 1
47 1
48 10
49 5
50 1
51 20
52 20
53 10
54 20
55 10
56 10
57 1
58 1
59 20
60 20
61 1
62 1
63 20
64 20
65 5
66 1
67 1
68 20
69 10
70 1
71 1
72 1
73 20
74 10
75 5
76 1
77 1
78 1
79 20
80 20
81 5
82 1
83 1
84 1
85 1
86 20
87 10
88 1
89 1
90 1
91 20
92 10
93 1
94 1
95 20
96 10
97 5
98 1
99 1
100 1
101 1
102 20
103 5
104 1
105 20
106 20
107 5
108 1
109 1
110 1
111 1
112 20
113 20
114 5
115 1
116 20
117 20
118 5
119 1
120 1
121 1
122 1
123 10
124 5
125 1
126 1
127 1
128 10
129 1
130 1
131 1
132 20
133 10
134 5
135 1
136 20
137 20
138 5
139 20
140 20
141 5
142 1
143 1
144 20
145 10
146 5
147 20
148 10
149 5
150 1
151 1
152 1
153 1
154 20
155 1
156 1
157 20
158 10
159 5
160 1
161 1
162 1
163 1
164 20
165 20
166 1
167 1
168 1
169 1
170 20
171 20
172 1
173 20
174 10
175 5
176 1
177 1
178 1
179 20
180 10
181 1
182 1
183 1
184 20
185 1
186 10
187 5
188 1
189 1
190 20
191 20
192 5
193 1
194 1
195 20
196 5
197 1
198 1
199 1
200 20
201 10
202 5
203 1
204 20
205 10
206 5
207 1
208 10
209 1
210 1
211 1
212 10
213 5
214 1
215 20
216 20
217 5
218 1
219 1
220 1
221 20
222 1
223 1
DEPOT_SECTION
1
-1
EOF