Normalized Data/p01_8_normalized_split0.sol
222 -2 3 4 6 5 1 144 145 143 -13 15 14 12 180 179 181 182 178 111 113 112 114 -18 19 20 16 17 21 32 33 -29 30 45 46 44 43 185 188 186 187 133 134 131 132 -31 108 104 110 105 107 106 109 142 140 138 141 139 -38 37 35 34 36 87 88 85 89 86 158 161 157 -50 52 211 213 212 9 11 8 10 7 122 124 123 125 -53 54 215 216 217 218 219 214 -56 57 55 169 171 170 24 22 23 127 130 128 129 -58 60 59 61 222 220 221 49 48 47 209 208 207 210 -62 63 65 64 66 117 120 116 118 121 119 115 -67 71 69 70 68 137 135 136 184 183 -72 74 77 73 76 75 163 166 168 167 164 165 -78 79 80 82 81 83 84 196 197 198 194 195 156 160 159 162 -90 93 92 91 189 192 190 193 191 51 126 -100 99 94 96 95 97 98 27 26 28 25 155 153 154 -101 103 102 200 201 199 202 176 174 172 175 177 173 -148 149 151 150 152 146 147 39 42 40 41 206 204 203 205 0 





OBJ=
1644.210
BEST_KNOWN=
0.000